Reading model...
...model read.
creating competitive generators file...
...competitive generators recorded.
Loading data...
.. day-ahead data with real-time VRE data read.
Compiling instance...
...instance created.
Creating Offer Mitigation (model will solve as dispatch if TRUE)...
...storage offer mitigation file created
LPStorage
running bound DA offers as LP
Solving...

Welcome to IBM(R) ILOG(R) CPLEX(R) Interactive Optimizer 12.9.0.0
  with Simplex, Mixed Integer & Barrier Optimizers
5725-A06 5725-A29 5724-Y48 5724-Y49 5724-Y54 5724-Y55 5655-Y21
Copyright IBM Corp. 1988, 2019.  All Rights Reserved.

Type 'help' for a list of available commands.
Type 'help' followed by a command name for more
information on commands.

CPLEX> Logfile 'cplex.log' closed.
Logfile 'C:\Users\Luke\Desktop\competitiveMPEC_1.16\logs\tmpdbvpobnn.cplex.log' open.
CPLEX> New value for parallel optimization mode: -1
CPLEX> New value for mixed integer optimality gap tolerance: 0.01
CPLEX> New value for feasibility tolerance: 1e-05
CPLEX> New value for deterministic time limit in ticks: 250000
CPLEX> Problem 'C:\Users\Luke\Desktop\competitiveMPEC_1.16\logs\tmph6dsvb5m.pyomo.lp' read.
Read time = 0.05 sec. (2.99 ticks)
CPLEX> Problem name         : C:\Users\Luke\Desktop\competitiveMPEC_1.16\logs\tmph6dsvb5m.pyomo.lp
Objective sense      : Minimize
Variables            :   25839  [Nneg: 889,  Box: 21470,  Free: 3480]
Objective nonzeros   :    2544
Linear constraints   :   27297  [Less: 13813,  Greater: 4416,  Equal: 9068]
  Nonzeros           :   87372
  RHS nonzeros       :   12174

Variables            : Min LB: -5000.000        Max UB: 5000.000       
Objective nonzeros   : Min   : 15.73158         Max   : 124.0997       
Linear constraints   :
  Nonzeros           : Min   : 0.8500000        Max   : 3000.000       
  RHS nonzeros       : Min   : 0.07500000       Max   : 90000.00       
CPLEX> CPXPARAM_Parallel                                -1
CPXPARAM_Simplex_Tolerances_Feasibility          1.0000000000000001e-05
CPXPARAM_DetTimeLimit                            250000
CPXPARAM_MIP_Tolerances_MIPGap                   0.01
Parallel mode: opportunistic, using up to 24 threads for concurrent optimization.
Tried aggregator 1 time.
LP Presolve eliminated 22001 rows and 17622 columns.
Aggregator did 749 substitutions.
Reduced LP has 4547 rows, 7468 columns, and 19831 nonzeros.
Presolve time = 0.05 sec. (27.50 ticks)

Iteration log . . .
Iteration:     1   Dual objective     =       -629017.430209
Perturbation started.
Iteration:   101   Dual objective     =       -629017.430209
Iteration:   401   Dual objective     =       -338351.224194
Iteration:   736   Dual objective     =        -95559.522409
Iteration:  1071   Dual objective     =        -95559.185258
Iteration:  1401   Dual objective     =        -95558.916703
Iteration:  1753   Dual objective     =        -95558.643353
Iteration:  2068   Dual objective     =        -95558.474882
Iteration:  2356   Dual objective     =        -95558.421891
Iteration:  2601   Dual objective     =        -95558.393526
Iteration:  2841   Dual objective     =        -17876.650660
Iteration:  3086   Dual objective     =        181197.137649
Iteration:  3317   Dual objective     =        220912.642345
Iteration:  3597   Dual objective     =        222847.589659
Iteration:  3936   Dual objective     =        222938.700034
Removing perturbation.

Dual simplex solved model.


Dual simplex - Optimal:  Objective =  2.2293714178e+05
Solution time =    0.11 sec.  Iterations = 4216 (0)
Deterministic time = 87.28 ticks  (800.74 ticks/sec)

CPLEX> Solution written to file 'C:\Users\Luke\Desktop\competitiveMPEC_1.16\logs\tmpn_rykx10.cplex.sol'.
CPLEX> Exporting results... 
